








































































































25 35 52 48 64 24 7 41 
31 70 56 46 75 2 17 76 
32 72 26 71 20 27 59 49 
19 69 34 18 40 15 63 39 
42 29 57 53 65 14 47 30 
16 73 33 74 9 51 6 
3 68 10 43 54 62 4 
36 60 37 67 1 28 11 66 
50 8 44 38 21 55 13 
61 58 5 45 12 0 23 22 
